16,3	0,0	14,3	20,0	0,0	0,0	0,0	0,0	0,0	9,8
19,9	8,2	0,0	11,7	13,4	0,0	0,0	8,2	0,0	0,0
0,0	0,0	16,3	0,0	17,4	15,8	0,0	0,0	19,6	0,0
10,5	0,0	11,0	0,0	0,0	0,0	15,6	0,0	0,0	0,0
0,0	12,3	0,0	15,3	15,5	0,0	0,0	9,3	0,0	0,0
0,0	10,2	5,1	0,0	8,8	14,1	0,0	0,0	13,3	0,0
0,0	13,1	0,0	15,2	0,0	0,0	13,7	0,0	0,0	18,3
13,1	0,0	16,1	0,0	0,0	0,0	0,0	0,0	0,0	17,0
0,0	14,1	0,0	18,3	8,1	0,0	0,0	16,0	0,0	0,0
0,0	0,0	7,8	0,0	0,0	10,7	6,7	0,0	0,0	13,9
0,0	7,1	0,0	0,0	12,8	0,0	19,8	0,0	19,6	14,3
8,2	0,0	14,1	0,0	19,5	0,0	7,1	16,4	13,8	0,0
0,0	18,6	0,0	0,0	0,0	8,2	0,0	9,5	17,6	6,3
17,6	7,5	16,8	0,0	0,0	12,2	0,0	14,9	18,5	0,0
11,1	0,0	17,4	0,0	11,2	17,8	11,6	8,8	0,0	0,0
0,0	17,7	0,0	10,4	0,0	16,0	0,0	14,2	0,0	0,0
12,3	0,0	14,8	7,2	16,8	0,0	0,0	5,3	0,0	0,0
0,0	0,0	18,6	0,0	0,0	10,4	18,0	0,0	7,4	7,8
16,5	0,0	0,0	7,4	11,0	13,1	9,0	14,1	0,0	20,0
0,0	16,1	0,0	6,5	0,0	0,0	14,3	0,0	13,9	18,5
									
4,4	2,6	3,3	4,2	3,9	4,9	4,9	3,3	4,5	3,1
